Set parameter TimeLimit to value 7200
Setting B&C+LSI': The proposed B&C algorithm based on formulation (40) (equipped with the lifted submodular inequalities), where the lifted submodular inequalities are computed by using the MILP based approach that solves the MILP reformulations (E.2) of the lifting problems (43)

----------------- start of the first stage -----------------

Iter     Best Incumbent      BestBound     Gap      Time  #VioCuts
1                 0.000     348355.215   100.0       0.5       800
2            137321.324     299211.611    54.1       0.6       798
3            169104.255     223232.371    24.2       0.9       768
4            182246.517     192315.409     5.2       1.2       565
5            187739.697     188414.601     0.4       1.2       134
6            187807.524     188112.463     0.2       1.3         7
7            187807.524     188101.988     0.2       1.3        10
8            187807.524     188091.546     0.2       1.4         0

CPU time spent in the first stage: 1.82 sec
Upper bound returned at the end of the first stage: 188091.546205
Objective value of the optimal solution or the best incumbent at the end of the first stage: 187807.523508
Number of cuts added at the end of the first stage for the initialization of the relaxed MILP problem: 1541
Termination status of the first stage: LP Optimal

------------------ end of the first stage ------------------


----------------- start of the second stage ----------------

Gurobi Optimizer version 11.0.1 build v11.0.1rc0 (linux64 - "CentOS Linux 7 (Core)")

CPU model: Intel(R) Xeon(R) Gold 6230R CPU @ 2.10GHz, instruction set [SSE2|AVX|AVX2|AVX512]
Thread count: 52 physical cores, 52 logical processors, using up to 1 threads


Warning: excessive time spent in model updates.
Consider calling update less frequently.

Optimize a model with 2347 rows, 1200 columns and 23801 nonzeros
Model fingerprint: 0xefb4fca0
Variable types: 800 continuous, 400 integer (0 binary)
Coefficient statistics:
  Matrix range     [1e-04, 2e+03]
  Objective range  [1e+01, 2e+03]
  Bounds range     [1e+00, 1e+00]
  RHS range        [7e-05, 4e+05]

Loaded user MIP start with objective 187808

Presolve removed 805 rows and 0 columns
Presolve time: 0.04s
Presolved: 1542 rows, 1200 columns, 17001 nonzeros
Variable types: 800 continuous, 400 integer (400 binary)

Root relaxation: objective 1.880915e+05, 536 iterations, 0.01 seconds (0.01 work units)

    Nodes    |    Current Node    |     Objective Bounds      |     Work
 Expl Unexpl |  Obj  Depth IntInf | Incumbent    BestBd   Gap | It/Node Time

     0     0 188091.546    0    6 187807.524 188091.546  0.15%     -    0s
H    0     0                    188005.49150 188091.546  0.05%     -    0s
     0     0 188054.918    0    6 188005.491 188054.918  0.03%     -    0s
     0     0 188054.918    0    6 188005.491 188054.918  0.03%     -    0s
     0     0 188044.677    0    8 188005.491 188044.677  0.02%     -    0s
     0     0 188013.472    0    1 188005.491 188013.472  0.00%     -    0s
     0     0     cutoff    0      188005.491 188005.491  0.00%     -    0s

Cutting planes:
  Gomory: 8
  Zero half: 1

Explored 1 nodes (1027 simplex iterations) in 0.21 seconds (0.19 work units)
Thread count was 1 (of 52 available processors)

Solution count 2: 188005 187808 

Optimal solution found (tolerance 0.00e+00)
Best objective 1.880054914960e+05, best bound 1.880054914960e+05, gap 0.0000%

User-callback calls 275, time in user-callback 0.00 sec

CPU time spent in the second stage: 0.21 sec
The LP relaxation bound at the root node: 188005.491496
Termination status of the second stage: OPTIMAL

------------------ end of the second stage -----------------

Average CPU time spent in solving a single MILP problem: 0.00 sec
Total CPU time: 1.60 sec
Percentage optimality gap: 0.00 %
CPU time spent in separating the cuts: 0.26 sec
Number of explored nodes: 1
Objective value of the returned solution: 188005.491496
Optimal facility locations: [47, 54, 55, 63, 77, 88, 89, 90, 103, 113, 116, 128, 139, 146, 170, 195, 221, 229, 230, 238, 244, 251, 257, 258, 274, 276, 282, 284, 307, 328, 339, 349, 354, 364, 384, 395, 397]

@end of file
